p cnf 256 1
x6 7 9 11 12 13 14 17 18 19 21 22 23 26 28 31 32 33 36 37 38 39 41 43 45 46 47 48 49 50 51 53 54 57 59 60 64 65 66 68 71 72 73 75 76 77 78 79 81 83 84 85 86 87 89 90 91 94 96 97 100 101 102 103 104 105 106 111 112 114 117 118 119 121 126 127 130 131 137 139 140 141 142 144 145 147 148 152 154 156 161 162 164 165 166 168 173 174 175 178 179 185 186 189 194 199 200 201 202 206 209 219 222 224 225 228 231 233 234 235 236 239 240 242 246 247 251 253 256 0
